% File represents an instance of a Composite Structure problem to be solved by a CP framework
% Created on 2025-03-26 10:41:55.981
T = 50;
n = 36;
m = 60;
edges = [(1, 2),
(7, 8),
(14, 13),
(20, 19),
(25, 26),
(31, 32),
(3, 2),
(9, 8),
(14, 15),
(20, 21),
(26, 27),
(32, 33),
(3, 4),
(10, 9),
(16, 15),
(22, 21),
(28, 27),
(33, 34),
(4, 5),
(10, 11),
(17, 16),
(23, 22),
(29, 28),
(35, 34),
(6, 5),
(12, 11),
(18, 17),
(24, 23),
(30, 29),
(36, 35),
(1, 7),
(7, 13),
(13, 19),
(25, 19),
(31, 25),
(2, 8),
(8, 14),
(14, 20),
(20, 26),
(32, 26),
(3, 9),
(9, 15),
(15, 21),
(21, 27),
(33, 27),
(10, 4),
(10, 16),
(16, 22),
(22, 28),
(28, 34),
(11, 5),
(17, 11),
(17, 23),
(23, 29),
(29, 35),
(12, 6),
(18, 12),
(18, 24),
(24, 30),
(30, 36)];
counts = [|6, 16, 6, 16,
|6, 14, 6, 16,
|6, 16, 6, 18,
|6, 14, 6, 16,
|6, 10, 6, 16,
|6, 12, 6, 18,
|6, 16, 6, 14,
|6, 14, 6, 14,
|6, 16, 6, 14,
|6, 16, 6, 16,
|6, 12, 6, 16,
|8, 12, 8, 18,
|6, 12, 6, 12,
|6, 12, 6, 14,
|6, 10, 6, 14,
|6, 10, 6, 16,
|6, 14, 6, 18,
|8, 14, 8, 20,
|4, 10, 4, 12,
|6, 12, 6, 12,
|6, 10, 6, 8,
|6, 10, 6, 12,
|6, 10, 6, 18,
|6, 12, 6, 20,
|4, 12, 4, 14,
|4, 10, 4, 12,
|4, 10, 4, 6,
|4, 10, 4, 10,
|6, 10, 6, 12,
|6, 12, 6, 14,
|4, 12, 4, 20,
|4, 12, 4, 16,
|4, 10, 4, 12,
|4, 8, 4, 8,
|4, 10, 4, 10,
|6, 10, 6, 10|];
